NAME: ACTUAL_TOURS/amz1488
TYPE: TOUR
COMMENT: RouteID_9fdd21fd-2a34-4abc-8dc7-393667a2cbd3
DIMENSION: 122
TOUR_SECTION
48
78
10
64
62
45
63
2
8
72
46
40
26
85
122
49
109
9
76
75
112
93
118
17
111
7
50
87
22
95
116
115
88
96
1
15
32
37
98
89
70
44
80
69
110
67
108
77
35
28
34
102
19
16
81
5
29
38
107
61
99
83
60
53
30
54
42
23
47
36
13
86
12
92
55
65
4
18
31
117
56
119
20
79
113
66
25
100
21
71
90
52
106
120
68
24
74
27
82
43
94
3
57
73
51
11
84
91
114
97
33
105
6
121
58
103
59
39
41
14
101
104
-1
EOF
